# Solution for model camouflage_srl_ilp
# Objective value = 2.6310286770429769e+01
Z_196_9_0 0
Z_196_9_1 0
Z_196_9_2 0
Z_196_9_3 0
Z_196_9_4 1
Z_196_4_0 0
Z_196_4_1 0
Z_196_4_2 0
Z_196_4_3 0
Z_196_4_4 1
Z_196_2_0 0
Z_196_2_1 0
Z_196_2_2 0
Z_196_2_3 0
Z_196_2_4 1
Z_196_7_0 0
Z_196_7_1 0
Z_196_7_2 0
Z_196_7_3 0
Z_196_7_4 1
Z_196_1_0 0
Z_196_1_1 0
Z_196_1_2 0
Z_196_1_3 0
Z_196_1_4 1
Z_196_3_0 0
Z_196_3_1 0
Z_196_3_2 0
Z_196_3_3 0
Z_196_3_4 1
Z_196_5_0 1
Z_196_5_1 0
Z_196_5_2 0
Z_196_5_3 0
Z_196_5_4 0
Z_196_8_0 0
Z_196_8_1 1
Z_196_8_2 0
Z_196_8_3 0
Z_196_8_4 0
Z_196_6_0 0
Z_196_6_1 0
Z_196_6_2 0
Z_196_6_3 0
Z_196_6_4 1
Z_208_0_0 0
Z_208_0_1 0
Z_208_0_2 0
Z_208_0_3 1
Z_208_0_4 0
Z_269_1_0 0
Z_269_1_1 0
Z_269_1_2 0
Z_269_1_3 0
Z_269_1_4 1
Z_269_2_0 0
Z_269_2_1 0
Z_269_2_2 0
Z_269_2_3 1
Z_269_2_4 0
Z_269_0_0 0
Z_269_0_1 0
Z_269_0_2 1
Z_269_0_3 0
Z_269_0_4 0
Z_455_1_0 0
Z_455_1_1 0
Z_455_1_2 0
Z_455_1_3 0
Z_455_1_4 1
Z_455_0_0 0
Z_455_0_1 0
Z_455_0_2 1
Z_455_0_3 0
Z_455_0_4 0
Z_555_0_0 0
Z_555_0_1 0
Z_555_0_2 0
Z_555_0_3 0
Z_555_0_4 1
Z_179_0_0 0
Z_179_0_1 0
Z_179_0_2 0
Z_179_0_3 1
Z_179_0_4 0
Z_228_0_0 0
Z_228_0_1 1
Z_228_0_2 0
Z_228_0_3 0
Z_228_0_4 0
Z_501_0_0 0
Z_501_0_1 0
Z_501_0_2 0
Z_501_0_3 1
Z_501_0_4 0
Z_393_4_0 0
Z_393_4_1 0
Z_393_4_2 1
Z_393_4_3 0
Z_393_4_4 0
Z_393_3_0 0
Z_393_3_1 0
Z_393_3_2 0
Z_393_3_3 0
Z_393_3_4 1
Z_393_2_0 0
Z_393_2_1 0
Z_393_2_2 0
Z_393_2_3 0
Z_393_2_4 1
Z_393_1_0 0
Z_393_1_1 0
Z_393_1_2 0
Z_393_1_3 0
Z_393_1_4 1
Z_393_0_0 0
Z_393_0_1 0
Z_393_0_2 0
Z_393_0_3 0
Z_393_0_4 1
Z_393_5_0 0
Z_393_5_1 0
Z_393_5_2 0
Z_393_5_3 0
Z_393_5_4 1
Z_393_6_0 0
Z_393_6_1 0
Z_393_6_2 0
Z_393_6_3 0
Z_393_6_4 1
Z_609_0_0 0
Z_609_0_1 0
Z_609_0_2 1
Z_609_0_3 0
Z_609_0_4 0
Z_463_0_0 0
Z_463_0_1 0
Z_463_0_2 1
Z_463_0_3 0
Z_463_0_4 0
Z_275_0_0 0
Z_275_0_1 0
Z_275_0_2 0
Z_275_0_3 1
Z_275_0_4 0
Z_738_0_0 0
Z_738_0_1 1
Z_738_0_2 0
Z_738_0_3 0
Z_738_0_4 0
Z_481_0_0 0
Z_481_0_1 0
Z_481_0_2 0
Z_481_0_3 0
Z_481_0_4 1
Z_66_0_0 0
Z_66_0_1 1
Z_66_0_2 0
Z_66_0_3 0
Z_66_0_4 0
Z_533_4_0 0
Z_533_4_1 0
Z_533_4_2 0
Z_533_4_3 0
Z_533_4_4 1
Z_533_1_0 0
Z_533_1_1 0
Z_533_1_2 0
Z_533_1_3 0
Z_533_1_4 1
Z_533_2_0 0
Z_533_2_1 0
Z_533_2_2 0
Z_533_2_3 0
Z_533_2_4 1
Z_533_0_0 0
Z_533_0_1 0
Z_533_0_2 0
Z_533_0_3 0
Z_533_0_4 1
Z_533_5_0 0
Z_533_5_1 0
Z_533_5_2 0
Z_533_5_3 0
Z_533_5_4 1
Z_533_3_0 0
Z_533_3_1 0
Z_533_3_2 0
Z_533_3_3 0
Z_533_3_4 1
Z_533_6_0 0
Z_533_6_1 0
Z_533_6_2 0
Z_533_6_3 1
Z_533_6_4 0
